NAME : random_7
COMMENT : 40 random nodes
TYPE : TSP
DIMENSION : 40
EDGE_WEIGHT_TYPE : EUC_2D
NODE_COORD_SECTION
1 581 574
2 348 302
3 350 151
4 611 819
5 828 78
6 887 899
7 139 25
8 917 299
9 910 3
10 541 584
11 886 772
12 903 466
13 493 332
14 806 602
15 377 876
16 186 488
17 237 241
18 624 569
19 11 73
20 972 189
21 842 202
22 790 194
23 517 561
24 804 516
25 951 145
26 986 368
27 987 319
28 90 60
29 907 224
30 297 37
31 154 828
32 28 570
33 350 339
34 810 931
35 211 721
36 662 412
37 332 819
38 482 685
39 962 423
40 283 970
EOF